Phon freq 
cell
   3.854   3.854   3.854  60.000000  60.000000  60.000000

fractional
Zn   0.000000   0.000000   0.000000 
S   0.25   0.25   0.25

species
Zn core  2.0000
S  core  1.357
S  shell -3.357

buckingham 
Zn core S shell 174.661395914 4.82939585675 0.0 0.0 15
S shell S shell 13706.0091404 -3.232908 0.0 0.0 15

lennard 9 6
Zn core S shell 909.511261681 7.18979980994 0.0 15
S shell S shell 2.41678095901 79.5004260314  0.0 15 

three
Zn core S shell S shell 0.778 109.47 0.0 2.4 0.0 2.4 0.0 3.9

spring
S 27.690

#twist + 1

shrink
1 1 1



gamma_direction_of_approach  1.0 0 0
kpoints 61
0 0 0
0.025 0 0.025
0.05 0 0.05
0.075 0 0.075
0.1 0 0.1
0.125 0 0.125
0.15 0 0.15
0.175 0 0.175
0.2 0 0.2
0.225 0 0.225
0.25 0 0.25
0.275 0 0.275
0.3 0 0.3
0.325 0 0.325
0.35 0 0.35
0.375 0 0.375
0.4 0 0.4
0.425 0 0.425
0.45 0 0.45
0.475 0 0.475
0.5 0 0.5
0.525 0.05 0.525
0.55 0.1 0.55
0.575 0.15 0.575
0.6 0.2 0.6
0.625 0.25 0.625
0.65 0.3 0.65
0.675 0.35 0.675
0.7 0.4 0.7
0.725 0.45 0.725
0.75 0.5 0.75
0.775 0.55 0.775
0.8 0.6 0.8
0.825 0.65 0.825
0.85 0.7 0.85
0.875 0.75 0.875
0.9 0.8 0.9
0.925 0.85 0.925
0.95 0.9 0.95
0.975 0.95 0.975
0 0 0
0.975 0.975 0.975
0.95 0.95 0.95
0.925 0.925 0.925
0.9 0.9 0.9
0.875 0.875 0.875
0.85 0.85 0.85
0.825 0.825 0.825
0.8 0.8 0.8
0.775 0.775 0.775
0.75 0.75 0.75
0.725 0.725 0.725
0.7 0.7 0.7
0.675 0.675 0.675
0.65 0.65 0.65
0.625 0.625 0.625
0.6 0.6 0.6
0.575 0.575 0.575
0.55 0.55 0.55
0.525 0.525 0.525
0.5 0.5 0.5

output phon xyz


